[2026-03-01T23:48:48] Logging to: /run/media/saveas/Secondary-Storage/Masters/CS234/CS234_Reinforcement_Learning/Final Project/CS234_Final_Project/results/trajectory_optimization/nlp/TRACK2_Obstacles/N120/run_trajopt_demo_output.log
======================================================================
IPOPT TRAJECTORY OPTIMIZATION DEMO (SINGLE STAGE)
======================================================================

1. Loading track: /run/media/saveas/Secondary-Storage/Masters/CS234/CS234_Reinforcement_Learning/Final Project/CS234_Final_Project/maps/TRACK2_Obstacles.mat
   Track length: 248.5 m

2. Creating vehicle model...
   Vehicle: SingleTrackModel(VW_Golf_GTI, weight_transfer=enabled)

3. Loaded obstacles from map: 4

4. Setup:
   N = 120
   ds = 2.07 m
   Obstacle subsamples/segment = 11
   Obstacle enforce midpoints = True
   Obstacle use slack = False
   Track buffer = 0.00 m
   lambda_u = 0.005
   vehicle_radius_m = 0.00
   eps_s = 0.100, eps_kappa = 0.050
   Solver path = Python/CasADi (IPOPT)

======================================================================
SINGLE STAGE: COMBINED OBJECTIVE (ACCEPTANCE-GATED)
======================================================================
Acceptance gates: success=True, max_slack<=0.000e+00, min_clearance>=-0.0050 m
Acceptance policy: practical epsilon mode (allows tiny negative dense clearance).
Initializer: obstacle_aware_init=True, sigma=8.00 m, margin=0.50 m

Attempt 1/4: baseline
  N=120, ds=2.071 m, subsamples=11, obstacle_clearance_m=0.300
Initializer: obstacle-aware e(s) enabled (sigma=8.00m, margin=0.30m)
Exception of type: DYNAMIC_LIBRARY_FAILURE in file "Common/IpLibraryLoader.cpp" at line 72:
 Exception message: libhsl.so: cannot open shared object file: No such file or directory

EXIT: Library loading failure.
      solver  :   t_proc      (avg)   t_wall      (avg)    n_eval
       total  | 344.00us (344.00us) 342.33us (342.33us)         1
Solver failed with ipopt.linear_solver=ma57: Error in Opti::solve [OptiNode] at .../casadi/core/optistack.cpp:217:
.../casadi/core/optistack_internal.cpp:1338: Assertion "return_success(accept_limit)" failed:
Solver failed. You may use opti.debug.value to investigate the latest values of variables. return_status is 'Invalid_Option'
Retrying with IPOPT default linear solver.

******************************************************************************
This program contains Ipopt, a library for large-scale nonlinear optimization.
 Ipopt is released as open source code under the Eclipse Public License (EPL).
         For more information visit https://github.com/coin-or/Ipopt
******************************************************************************

This is Ipopt version 3.14.11, running with linear solver MUMPS 5.4.1.

Number of nonzeros in equality constraint Jacobian...:    13219
Number of nonzeros in inequality constraint Jacobian.:     4120
Number of nonzeros in Lagrangian Hessian.............:     5194

Total number of variables............................:     1210
                     variables with only lower bounds:        0
                variables with lower and upper bounds:        0
                     variables with only upper bounds:        0
Total number of equality constraints.................:      970
Total number of inequality constraints...............:     2482
        inequality constraints with only lower bounds:     2119
   inequality constraints with lower and upper bounds:        0
        inequality constraints with only upper bounds:      363

iter    objective    inf_pr   inf_du lg(mu)  ||d||  lg(rg) alpha_du alpha_pr  ls
   0  2.4852138e+01 3.22e-01 1.68e+00  -1.0 0.00e+00    -  0.00e+00 0.00e+00   0
   1  2.4821060e+01 2.82e-01 9.43e+01  -1.0 7.50e+00   2.0 7.35e-01 1.25e-01h  4
   2  2.4819586e+01 2.64e-01 9.59e+02  -1.0 6.52e+00   3.3 9.90e-01 6.25e-02h  5
   3  2.4824621e+01 2.48e-01 3.06e+03  -1.0 6.08e+00   3.8 1.00e+00 6.25e-02h  5
   4  2.4843101e+01 2.50e-01 1.36e+04  -1.0 5.73e+00   4.2 1.00e+00 1.25e-01h  4
   5  2.4874611e+01 3.20e-01 3.71e+04  -1.0 4.98e+00   4.6 1.00e+00 1.25e-01h  4
   6  2.4948023e+01 4.23e-01 3.98e+04  -1.0 4.33e+00   4.1 1.00e+00 1.25e-01h  4
   7  2.5045938e+01 6.23e-01 6.25e+04  -1.0 3.61e+00   4.6 1.00e+00 2.50e-01h  3
   8  2.5677163e+01 1.33e+00 5.82e+04  -1.0 2.38e+00   4.1 1.00e+00 1.00e+00H  1
   9  2.5688469e+01 1.18e+00 1.48e+05  -1.0 3.08e-01   4.5 1.00e+00 1.00e+00h  1
iter    objective    inf_pr   inf_du lg(mu)  ||d||  lg(rg) alpha_du alpha_pr  ls
  10  2.5691134e+01 6.91e-01 6.50e+04  -1.0 7.33e-02   4.9 1.00e+00 1.00e+00h  1
  11  2.5697248e+01 1.73e-01 2.07e+04  -1.0 1.32e-01   4.5 1.00e+00 1.00e+00h  1
  12  2.5702078e+01 2.17e-02 6.82e+03  -1.0 8.12e-02   4.0 1.00e+00 1.00e+00h  1
  13  2.5702289e+01 1.31e-04 1.86e+02  -1.0 2.78e-03   3.5 1.00e+00 1.00e+00h  1
  14  2.5702269e+01 2.48e-08 1.32e-01  -1.0 5.40e-05   3.0 1.00e+00 1.00e+00h  1
  15  2.5702240e+01 7.14e-09 1.02e-02  -2.5 2.92e-05   2.5 1.00e+00 1.00e+00h  1
  16  2.5702155e+01 4.60e-08 9.93e-03  -3.8 8.50e-05   2.1 1.00e+00 1.00e+00h  1
  17  2.5701900e+01 4.05e-07 9.93e-03  -3.8 2.55e-04   1.6 1.00e+00 1.00e+00h  1
  18  2.5701135e+01 3.41e-06 9.93e-03  -3.8 7.64e-04   1.1 1.00e+00 1.00e+00h  1
  19  2.5698843e+01 2.52e-05 9.92e-03  -3.8 2.29e-03   0.6 1.00e+00 1.00e+00h  1
iter    objective    inf_pr   inf_du lg(mu)  ||d||  lg(rg) alpha_du alpha_pr  ls
  20  2.5691981e+01 1.45e-04 9.90e-03  -3.8 6.86e-03   0.2 1.00e+00 1.00e+00h  1
  21  2.5671477e+01 7.62e-04 9.86e-03  -3.8 2.05e-02  -0.3 1.00e+00 1.00e+00h  1
  22  2.5610419e+01 3.55e-03 9.79e-03  -3.8 6.10e-02  -0.8 1.00e+00 1.00e+00h  1
  23  2.5430488e+01 3.31e-02 9.62e-03  -3.8 1.80e-01  -1.3 1.00e+00 1.00e+00h  1
  24  2.4917365e+01 3.19e-01 1.57e-02  -3.8 5.13e-01  -1.7 1.00e+00 1.00e+00h  1
  25  2.3581759e+01 2.02e+00 4.13e-02  -3.8 1.34e+00  -2.2 1.00e+00 1.00e+00h  1
  26  2.3237380e+01 1.75e+00 3.52e-02  -3.8 2.67e+00  -2.7 1.00e+00 1.29e-01h  1
  27  2.1506869e+01 5.22e+00 4.16e-02  -3.8 7.79e+00  -3.2 1.00e+00 3.12e-01h  1
  28  2.0398056e+01 6.40e+00 4.04e-01  -3.8 2.71e+00  -2.8 5.64e-01 6.50e-01h  1
  29  2.0401053e+01 5.38e+00 3.64e-01  -3.8 2.83e+00  -2.3 4.13e-01 9.22e-02H  1
iter    objective    inf_pr   inf_du lg(mu)  ||d||  lg(rg) alpha_du alpha_pr  ls
  30  2.0522822e+01 5.58e+00 5.71e-01  -3.8 2.90e+00  -1.9 1.40e-01 4.36e-01h  1
  31  2.0744101e+01 7.38e+00 8.47e+00  -3.8 1.79e+00  -1.5 5.16e-02 1.00e+00h  1
  32  2.0770808e+01 4.62e+00 1.17e+01  -3.8 5.35e+00  -1.1 1.66e-01 1.42e-01h  1
  33  2.0774651e+01 4.51e+00 1.14e+01  -3.8 2.03e+00  -0.6 3.07e-02 2.53e-02h  1
  34  2.0777035e+01 4.44e+00 1.12e+01  -3.8 1.83e+00  -0.2 1.40e-01 1.63e-02h  1
  35  2.0786967e+01 3.98e+00 1.05e+01  -3.8 1.87e+00   0.2 7.79e-02 6.86e-02h  1
  36  2.0838764e+01 3.03e+00 7.42e+00  -3.8 2.21e+00  -0.2 9.84e-01 3.14e-01h  1
  37  2.0846285e+01 2.84e+00 6.88e+00  -3.8 1.24e+00   1.1 4.44e-04 6.68e-02h  1
  38  2.0847154e+01 2.81e+00 6.81e+00  -3.8 8.19e+00   0.6 1.66e-01 9.94e-03h  6
  39  2.0847288e+01 2.80e+00 6.78e+00  -3.8 1.99e+01   0.1 4.97e-02 3.73e-03h  7
iter    objective    inf_pr   inf_du lg(mu)  ||d||  lg(rg) alpha_du alpha_pr  ls
  40  2.0916848e+01 4.00e+00 1.77e+02  -3.8 1.20e+00   0.6 6.07e-02 5.54e-01h  1
  41  2.1033048e+01 4.97e+00 4.70e+01  -3.8 5.42e-01   0.1 7.21e-01 1.00e+00h  1
  42  2.1060163e+01 9.43e-01 1.96e+01  -3.8 4.49e-01   0.5 1.00e+00 1.00e+00h  1
  43  2.1065909e+01 6.86e-01 5.31e+01  -3.8 2.43e-01   0.9 1.00e+00 9.92e-01h  1
  44  2.1068929e+01 2.40e-01 1.00e+01  -3.8 6.75e-02   1.4 1.00e+00 1.00e+00h  1
  45  2.1076740e+01 3.99e-02 2.77e+00  -3.8 1.31e-01   0.9 9.26e-01 1.00e+00h  1
  46  2.1076859e+01 7.90e-04 3.34e-01  -3.8 2.65e-02   0.4 1.00e+00 1.00e+00h  1
  47  2.1073193e+01 1.61e-03 1.56e-02  -3.8 1.10e-02  -0.1 1.00e+00 1.00e+00h  1
  48  2.1062590e+01 9.66e-03 8.57e-03  -3.8 3.09e-02  -0.6 1.00e+00 1.00e+00h  1
  49  2.1034538e+01 4.78e-02 9.72e-03  -3.8 7.90e-02  -1.0 1.00e+00 1.00e+00h  1
iter    objective    inf_pr   inf_du lg(mu)  ||d||  lg(rg) alpha_du alpha_pr  ls
  50  2.0968685e+01 1.52e-01 6.59e-02  -3.8 1.59e-01  -1.5 1.00e+00 1.00e+00h  1
  51  2.0949372e+01 7.80e-01 1.20e+00  -3.8 8.27e-02  -1.1 1.00e+00 1.00e+00h  1
  52  2.0888115e+01 3.25e-01 3.15e-01  -3.8 1.70e-01  -1.6 1.00e+00 1.00e+00h  1
  53  2.0735436e+01 6.98e-01 5.87e-02  -3.8 5.00e-01  -2.0 1.00e+00 1.00e+00h  1
  54  2.0703817e+01 3.09e-01 3.80e-02  -3.8 2.08e-01  -1.6 9.94e-01 1.00e+00h  1
  55  2.0589497e+01 4.05e-01 1.05e-02  -3.8 5.18e-01  -2.1 1.00e+00 9.29e-01h  1
  56  2.0469023e+01 8.65e-01 1.30e-02  -3.8 1.67e+00  -2.6 1.00e+00 3.94e-01h  1
  57  2.0403894e+01 2.67e+00 1.92e-02  -3.8 1.49e+02  -3.0 1.63e-02 9.21e-03h  1
  58  2.0318881e+01 5.00e+00 3.66e-02  -3.8 1.98e+01  -3.5 1.07e-01 6.85e-02h  1
  59  2.0308133e+01 4.19e+00 1.18e-01  -3.8 2.86e+00  -2.2 4.43e-01 1.57e-01h  1
iter    objective    inf_pr   inf_du lg(mu)  ||d||  lg(rg) alpha_du alpha_pr  ls
  60  2.0306987e+01 2.14e+00 1.16e-01  -3.8 1.42e+00  -1.8 4.82e-01 5.29e-01h  1
  61  2.0312057e+01 1.30e+00 1.05e+01  -3.8 8.34e-01  -0.4 3.85e-01 4.16e-01h  1
  62  2.0313085e+01 7.03e-01 6.07e+00  -3.8 5.79e-01  -0.9 1.11e-01 5.08e-01h  1
  63  2.0310674e+01 6.13e-01 5.24e+00  -3.8 6.45e-01  -1.4 1.00e+00 1.43e-01h  1
  64  2.0305262e+01 8.27e-01 4.48e+00  -3.8 4.36e+00  -1.9 1.36e-01 8.18e-02h  1
  65  2.0306669e+01 3.98e-01 1.14e+00  -3.8 2.85e-01  -0.5 1.00e+00 1.00e+00h  1
  66  2.0306672e+01 3.98e-01 1.12e+00  -3.8 3.19e+00  -0.1 1.22e-01 4.18e-03h  3
  67  2.0306867e+01 3.91e-01 1.53e+00  -3.8 2.51e-01   0.3 1.00e+00 2.54e-01h  2
  68  2.0308115e+01 3.39e-01 1.36e+00  -3.8 2.57e-01  -0.2 7.22e-01 5.00e-01h  2
  69  2.0306092e+01 1.70e-01 6.38e-01  -3.8 6.68e-02   0.3 6.72e-01 8.87e-01h  1
iter    objective    inf_pr   inf_du lg(mu)  ||d||  lg(rg) alpha_du alpha_pr  ls
  70  2.0305549e+01 6.26e-02 2.01e+00  -3.8 9.52e-02   0.7 1.00e+00 1.00e+00f  1
  71  2.0305713e+01 2.79e-03 8.58e-02  -3.8 3.87e-02   0.2 5.54e-01 1.00e+00h  1
  72  2.0304310e+01 8.80e-04 4.69e-03  -3.8 6.00e-03  -0.3 1.00e+00 1.00e+00h  1
  73  2.0300172e+01 8.58e-04 2.93e-03  -3.8 1.62e-02  -0.7 1.00e+00 1.00e+00h  1
  74  2.0288233e+01 1.23e-02 2.78e-03  -3.8 4.64e-02  -1.2 1.00e+00 1.00e+00h  1
  75  2.0254726e+01 1.11e-01 2.69e-03  -3.8 1.35e-01  -1.7 1.00e+00 1.00e+00h  1
  76  2.0184751e+01 1.74e-01 5.49e-03  -3.8 4.04e-01  -2.2 1.00e+00 7.88e-01h  1
  77  2.0085551e+01 5.19e+00 2.00e-02  -3.8 1.26e+01  -2.7 1.08e-01 2.27e-01h  1
  78  2.0082302e+01 4.45e+00 1.49e-01  -3.8 2.72e+00  -2.2 1.92e-02 2.12e-01h  1
  79  2.0059360e+01 3.83e+00 1.25e-01  -3.8 2.19e+00  -2.7 5.63e-01 1.35e-01h  1
iter    objective    inf_pr   inf_du lg(mu)  ||d||  lg(rg) alpha_du alpha_pr  ls
  80  2.0043274e+01 2.47e+00 5.64e-02  -3.8 2.02e+00  -2.3 4.33e-01 3.29e-01h  1
  81  2.0041763e+01 1.76e+00 4.23e-02  -3.8 1.18e+00  -1.9 9.67e-01 2.97e-01h  1
  82  2.0001808e+01 1.41e+00 7.17e-02  -3.8 1.18e+00  -2.3 1.52e-01 5.38e-01h  1
  83  1.9999371e+01 1.27e+00 6.58e-02  -3.8 8.09e-01  -1.9 4.12e-01 9.49e-02h  1
  84  1.9985711e+01 9.95e-01 8.26e-02  -3.8 7.40e-01  -2.4 1.00e+00 2.10e-01h  1
  85  1.9858281e+01 4.00e-01 3.62e-02  -3.8 1.00e+00  -2.9 1.00e+00 7.10e-01h  1
  86  1.9565958e+01 1.45e+00 2.25e-02  -3.8 2.40e+00  -3.3 1.00e+00 7.74e-01h  1
  87  1.9402208e+01 1.38e+00 1.49e-02  -3.8 4.58e+00  -3.8 8.25e-01 3.48e-01h  1
  88  1.9222679e+01 1.62e+00 1.38e-02  -3.8 7.82e+00  -4.3 6.12e-01 2.98e-01h  1
  89  1.9264159e+01 2.66e+00 3.24e-01  -3.8 9.82e-01  -3.0 6.29e-01 8.54e-01h  1
iter    objective    inf_pr   inf_du lg(mu)  ||d||  lg(rg) alpha_du alpha_pr  ls
  90  1.9272498e+01 1.37e+00 9.48e-02  -3.8 1.81e-01  -0.7 1.00e+00 4.12e-01h  1
  91  1.9288925e+01 7.14e-01 3.31e-02  -3.8 1.14e-01  -1.2 9.25e-01 1.00e+00h  1
  92  1.9288342e+01 5.46e-01 1.85e-02  -3.8 1.91e-01  -1.7 1.00e+00 1.00e+00h  1
  93  1.9286268e+01 2.38e+00 1.77e-01  -3.8 1.30e+01  -2.2 1.37e-01 5.31e-02h  2
  94  1.9270761e+01 7.10e-01 6.20e-02  -3.8 1.00e+00  -2.6 1.00e+00 1.00e+00h  1
  95  1.9267245e+01 4.20e-01 5.33e-02  -3.8 1.35e+00  -2.2 5.25e-01 4.23e-01h  1
  96  1.9252703e+01 1.50e-01 8.77e-03  -3.8 3.55e-01  -2.7 8.92e-02 1.00e+00h  1
  97  1.9218075e+01 1.72e-01 4.22e-03  -3.8 6.76e-01  -3.2 1.00e+00 1.00e+00h  1
  98  1.9131633e+01 1.14e+00 4.78e-02  -3.8 1.85e+00  -3.6 1.00e+00 1.00e+00h  1
  99  1.9109891e+01 9.97e-01 4.16e-02  -3.8 3.45e+00  -4.1 1.00e+00 1.31e-01h  1
iter    objective    inf_pr   inf_du lg(mu)  ||d||  lg(rg) alpha_du alpha_pr  ls
 100  1.8974632e+01 3.51e+00 2.55e-02  -3.8 9.26e+00  -4.6 5.01e-01 3.86e-01h  1
 101  1.8862064e+01 3.67e+00 1.61e-01  -3.8 3.50e+00  -4.2 2.50e-01 1.00e+00h  1
 102  1.8865946e+01 2.17e+00 1.79e-01  -3.8 1.65e+00  -2.8 6.82e-01 1.00e+00h  1
 103  1.8857957e+01 6.65e-01 2.63e-02  -3.8 1.06e+00  -3.3 1.00e+00 1.00e+00h  1
 104  1.8831329e+01 2.24e-01 1.31e-01  -3.8 1.47e+00  -3.8 4.82e-01 1.00e+00h  1
 105  1.8743656e+01 9.28e-01 3.61e-01  -3.8 3.88e+00  -4.3 1.00e+00 1.00e+00h  1
 106  1.8540965e+01 1.28e+00 1.49e-01  -3.8 9.26e+00  -4.7 1.00e+00 1.00e+00h  1
 107  1.8304613e+01 1.36e+00 2.19e-01  -3.8 2.71e+01  -5.2 8.00e-01 4.64e-01h  1
 108  1.8220820e+01 1.61e+00 1.22e-01  -3.8 8.97e+00  -4.8 1.00e+00 5.14e-01h  1
 109  1.8227342e+01 4.18e-01 6.20e-01  -3.8 5.32e-01  -1.7 1.63e-01 6.97e-01h  1
iter    objective    inf_pr   inf_du lg(mu)  ||d||  lg(rg) alpha_du alpha_pr  ls
 110  1.8232398e+01 1.10e+00 1.06e-01  -3.8 1.80e-01  -1.2 1.00e+00 1.00e+00h  1
 111  1.8232269e+01 1.00e+00 2.88e-02  -3.8 2.22e-01  -1.7 1.00e+00 1.00e+00h  1
 112  1.8231489e+01 7.22e-01 1.41e-01  -3.8 2.53e-01  -2.2 1.00e+00 1.00e+00h  1
 113  1.8231461e+01 5.52e-01 5.38e-02  -3.8 2.14e-01  -1.8 1.00e+00 1.00e+00h  1
 114  1.8232233e+01 2.65e-01 7.08e-02  -3.8 3.71e-02  -0.4 1.00e+00 1.00e+00h  1
 115  1.8232282e+01 1.20e-01 6.57e-02  -3.8 6.31e-02  -0.9 1.00e+00 1.00e+00h  1
 116  1.8231698e+01 5.21e-02 3.95e-02  -3.8 8.49e-02  -1.4 1.00e+00 1.00e+00h  1
 117  1.8231295e+01 1.07e-01 1.47e-02  -3.8 4.79e-02  -1.9 1.00e+00 1.00e+00h  1
 118  1.8230499e+01 4.47e-02 2.08e-02  -3.8 9.31e-02  -2.3 1.00e+00 1.00e+00h  1
 119  1.8228267e+01 2.18e-02 5.11e-03  -3.8 1.78e-01  -2.8 1.00e+00 1.00e+00h  1
iter    objective    inf_pr   inf_du lg(mu)  ||d||  lg(rg) alpha_du alpha_pr  ls
 120  1.8222522e+01 4.09e-02 1.20e-03  -3.8 3.65e-01  -3.3 1.00e+00 1.00e+00h  1
 121  1.8206836e+01 3.45e-02 5.64e-04  -3.8 8.15e-01  -3.8 1.00e+00 1.00e+00h  1
 122  1.8161643e+01 1.56e-01 3.59e-03  -3.8 2.45e+00  -4.3 1.00e+00 1.00e+00h  1
 123  1.8038288e+01 8.12e-01 3.16e-02  -3.8 7.02e+00  -4.7 9.72e-01 1.00e+00h  1
 124  1.8039691e+01 9.42e-01 5.37e-02  -3.8 4.03e-01  -1.6 5.48e-01 9.20e-01h  1
 125  1.8041764e+01 7.37e-01 3.30e-02  -3.8 4.21e-01  -1.2 3.42e-02 7.41e-01h  1
 126  1.8042605e+01 6.94e-01 2.82e-01  -3.8 2.42e+00  -0.7 1.54e-01 6.49e-02h  1
 127  1.8043072e+01 5.42e-01 2.18e-01  -3.8 3.41e-01  -1.2 2.24e-01 2.75e-01h  1
 128  1.8044740e+01 7.42e-01 1.27e-02  -3.8 3.15e-01  -1.7 1.00e+00 1.00e+00h  1
 129  1.8043662e+01 2.96e-01 5.32e-03  -3.8 2.38e-01  -2.2 1.00e+00 1.00e+00h  1
iter    objective    inf_pr   inf_du lg(mu)  ||d||  lg(rg) alpha_du alpha_pr  ls
 130  1.8040991e+01 1.77e-01 6.09e-03  -3.8 1.53e-01  -2.7 1.00e+00 1.00e+00h  1
 131  1.8037056e+01 3.53e-02 4.62e-02  -3.8 1.85e-01  -3.1 1.00e+00 1.00e+00h  1
 132  1.8027206e+01 1.86e-02 9.93e-03  -3.8 5.82e-01  -3.6 1.00e+00 1.00e+00h  1
 133  1.8001692e+01 3.45e-02 1.37e-03  -3.8 1.73e+00  -4.1 1.00e+00 1.00e+00h  1
 134  1.7927806e+01 2.08e-01 3.13e-03  -3.8 5.32e+00  -4.6 1.00e+00 1.00e+00h  1
 135  1.7893767e+01 1.91e-01 1.37e-02  -3.8 1.73e+01  -5.0 1.00e+00 1.67e-01h  1
 136  1.7769146e+01 4.38e-02 3.07e-02  -3.8 5.78e+01  -5.5 6.58e-01 2.26e-01h  1
 137  1.7648894e+01 2.42e-01 4.80e-02  -3.8 2.09e+02  -6.0 1.61e-01 7.73e-02h  1
 138  1.7649786e+01 5.58e-02 1.21e-01  -3.8 3.69e-01  -2.0 8.31e-01 1.00e+00h  1
 139  1.7648366e+01 3.00e-02 6.20e-03  -3.8 1.26e-01  -2.4 1.00e+00 1.00e+00h  1
iter    objective    inf_pr   inf_du lg(mu)  ||d||  lg(rg) alpha_du alpha_pr  ls
 140  1.7590382e+01 1.78e-01 2.34e-02  -3.8 1.61e+03    -  2.80e-02 1.75e-02f  1
 141  1.7575848e+01 3.32e-01 2.34e-02  -3.8 2.86e+02    -  5.01e-03 6.93e-03h  1
 142  1.7578392e+01 4.77e-01 1.54e+00  -3.8 3.83e+00  -2.0 2.93e-03 3.75e-02h  1
 143  1.7575978e+01 4.69e+00 1.64e+00  -3.8 4.20e-01  -1.6 1.00e+00 7.99e-01h  1
 144  1.7579734e+01 2.50e+00 7.33e-01  -3.8 7.10e-01  -2.1 3.10e-01 2.97e-01h  1
 145  1.7577817e+01 9.17e-01 2.25e-01  -3.8 1.08e-01  -1.6 1.00e+00 1.00e+00h  1
 146  1.7578082e+01 9.08e-01 2.21e-01  -3.8 1.57e+00  -2.1 3.14e-01 1.08e-02h  7
 147  1.7578674e+01 8.12e-01 1.74e-01  -3.8 3.71e-01  -1.7 1.00e+00 1.49e-01h  1
 148  1.7579852e+01 7.64e-01 2.98e-02  -3.8 2.64e-01  -1.3 7.37e-01 2.50e-01h  3
 149  1.7578419e+01 8.49e-01 1.27e+00  -3.8 6.45e-01   0.1 1.89e-01 2.25e-01h  2
iter    objective    inf_pr   inf_du lg(mu)  ||d||  lg(rg) alpha_du alpha_pr  ls
 150  1.7576576e+01 6.35e-01 9.35e-01  -3.8 3.34e-01  -0.4 4.59e-01 2.69e-01h  1
 151  1.7575233e+01 5.45e-01 5.66e+00  -3.8 2.71e-01   0.0 1.00e+00 3.57e-01h  1
 152  1.7572784e+01 4.29e-01 4.31e+00  -3.8 2.26e-01  -0.5 1.00e+00 2.33e-01h  1
 153  1.7572768e+01 7.21e-01 2.96e+00  -3.8 2.61e-01  -0.0 1.00e+00 2.69e-01h  2
 154  1.7570550e+01 5.79e-01 2.29e+00  -3.8 3.75e-01  -0.5 4.76e-01 2.43e-01h  1
 155  1.7567608e+01 4.46e-01 1.46e+00  -3.8 4.09e-01  -1.0 1.40e-01 3.64e-01h  1
 156  1.7568469e+01 4.10e-01 1.60e+00  -3.8 6.82e-01  -0.6 1.00e+00 8.19e-02h  1
 157  1.7568382e+01 3.57e-01 1.14e+00  -3.8 1.97e-01  -0.1 4.01e-01 1.71e-01h  1
 158  1.7566351e+01 3.63e-01 9.76e-01  -3.8 6.17e+00  -0.6 7.42e-03 1.34e-03H  1
 159  1.7567491e+01 3.52e-01 2.88e+01  -3.8 1.90e+00  -0.2 8.19e-01 3.30e-02h  1
iter    objective    inf_pr   inf_du lg(mu)  ||d||  lg(rg) alpha_du alpha_pr  ls
 160  1.7570773e+01 2.36e-01 4.05e+00  -3.8 4.22e-01  -0.7 9.10e-01 5.73e-01h  1
 161  1.7572617e+01 1.90e-01 2.44e+00  -3.8 2.32e-01  -0.2 4.61e-01 1.95e-01h  1
 162  1.7571651e+01 1.88e-01 1.69e+00  -3.8 6.65e-01  -0.7 3.88e-03 7.18e-03H  1
 163  1.7572330e+01 1.83e-01 4.42e+00  -3.8 1.94e+00  -0.3 5.24e-02 3.39e-02f  2
 164  1.7579919e+01 9.98e-03 9.63e+00  -3.8 1.90e-01  -0.8 4.14e-01 9.82e-01h  1
 165  1.7579570e+01 4.08e-04 1.40e-02  -3.8 2.73e-02  -1.2 1.00e+00 1.00e+00f  1
 166  1.7581027e+01 1.56e-02 2.07e-01  -3.8 2.51e-01  -1.7 1.00e+00 4.34e-01f  1
 167  1.7578500e+01 6.15e-03 4.43e-03  -3.8 1.33e-01  -2.2 1.00e+00 1.00e+00f  1
 168  1.7553153e+01 1.04e-01 1.64e-02  -3.8 3.26e+02    -  3.85e-03 2.94e-02h  1
 169  1.7549539e+01 1.49e-02 2.24e-02  -3.8 1.28e-01  -1.8 1.00e+00 9.47e-01h  1
iter    objective    inf_pr   inf_du lg(mu)  ||d||  lg(rg) alpha_du alpha_pr  ls
 170  1.7545508e+01 3.77e+00 5.03e-01  -3.8 1.96e-01  -2.2 1.00e+00 1.00e+00h  1
 171  1.7479037e+01 3.26e+00 4.32e-01  -3.8 9.02e+01    -  2.72e-01 1.28e-01h  1
 172  1.7437288e+01 2.65e+00 3.53e-01  -3.8 4.33e+01    -  2.75e-02 1.83e-01h  1
 173  1.7425940e+01 1.96e+00 2.05e-01  -3.8 1.73e+00  -2.7 1.78e-01 2.47e-01h  1
 174  1.7401401e+01 8.98e-01 8.68e-02  -3.8 1.76e+00  -3.2 4.90e-01 5.45e-01h  1
 175  1.7371425e+01 1.88e-01 4.20e-02  -3.8 2.11e+00  -3.7 3.65e-01 5.60e-01h  1
 176  1.7344416e+01 4.91e-01 1.78e-02  -3.8 2.51e+00  -4.2 8.00e-01 7.20e-01h  1
 177  1.7338007e+01 8.00e-01 1.75e-02  -3.8 6.01e+02    -  1.01e-02 8.27e-03h  1
 178  1.7326844e+01 7.42e-01 7.70e-02  -3.8 3.45e+01    -  3.06e-01 7.36e-02h  1
 179  1.7300418e+01 1.16e+00 1.64e-02  -3.8 2.21e+01    -  3.17e-01 4.78e-01h  1
iter    objective    inf_pr   inf_du lg(mu)  ||d||  lg(rg) alpha_du alpha_pr  ls
 180  1.7293095e+01 4.52e-01 7.17e-02  -3.8 1.45e+01    -  2.88e-01 6.06e-01h  1
 181  1.7291682e+01 3.52e-01 4.97e-02  -3.8 7.91e+00    -  1.00e+00 2.24e-01h  1
 182  1.7294824e+01 5.04e-02 7.58e-02  -3.8 3.23e+00    -  3.76e-01 9.60e-01h  1
 183  1.7296297e+01 1.35e-02 4.97e-03  -3.8 3.78e-01    -  1.00e+00 1.00e+00h  1
 184  1.7296040e+01 3.17e-03 7.92e-04  -3.8 2.29e-01    -  1.00e+00 1.00e+00h  1
 185  1.7295964e+01 4.34e-04 3.99e-04  -3.8 1.38e-01    -  1.00e+00 1.00e+00h  1
 186  1.7287304e+01 5.41e-03 9.67e-03  -5.7 2.71e+00    -  9.18e-01 6.01e-01h  1
 187  1.7282361e+01 8.17e-03 1.59e-03  -5.7 1.02e+00    -  1.00e+00 9.09e-01h  1
 188  1.7281919e+01 4.55e-02 1.63e-03  -5.7 1.50e-01    -  1.00e+00 1.00e+00h  1
 189  1.7281873e+01 9.60e-02 1.14e-03  -5.7 1.01e-01    -  1.00e+00 1.00e+00h  1
iter    objective    inf_pr   inf_du lg(mu)  ||d||  lg(rg) alpha_du alpha_pr  ls
 190  1.7281843e+01 1.15e-01 3.42e-03  -5.7 1.41e-01    -  1.00e+00 1.00e+00h  1
 191  1.7281756e+01 1.18e-01 2.04e-03  -5.7 1.67e-01    -  1.00e+00 1.00e+00h  1
 192  1.7281750e+01 1.09e-01 3.14e-03  -5.7 1.92e-01    -  1.00e+00 7.10e-01h  1
 193  1.7281818e+01 7.31e-02 7.73e-04  -5.7 8.11e-02    -  1.00e+00 1.00e+00h  1
 194  1.7281976e+01 1.98e-02 2.26e-03  -5.7 9.06e-02    -  1.00e+00 1.00e+00H  1
 195  1.7281995e+01 3.12e-03 1.28e-03  -5.7 1.26e-01    -  1.00e+00 1.00e+00H  1
 196  1.7281925e+01 6.84e-04 3.53e-03  -5.7 1.26e-01    -  1.00e+00 3.89e-01h  1
 197  1.7281898e+01 1.59e-02 7.09e-04  -5.7 1.57e-01    -  1.00e+00 1.00e+00f  1
 198  1.7281920e+01 3.15e-03 2.39e-04  -5.7 2.71e-02    -  1.00e+00 1.00e+00H  1
 199  1.7281929e+01 2.72e-03 1.36e-03  -5.7 3.54e-02    -  1.00e+00 1.00e+00H  1
iter    objective    inf_pr   inf_du lg(mu)  ||d||  lg(rg) alpha_du alpha_pr  ls
 200  1.7281894e+01 5.11e-02 6.57e-04  -5.7 6.50e-02    -  1.00e+00 1.00e+00h  1
 201  1.7281960e+01 9.60e-04 2.11e-03  -5.7 8.01e-02    -  1.00e+00 1.00e+00H  1
 202  1.7281964e+01 4.16e-04 1.05e-03  -5.7 9.62e-02    -  1.00e+00 1.00e+00H  1
 203  1.7281914e+01 1.13e-02 2.25e-03  -5.7 9.20e-02    -  1.00e+00 5.00e-01h  2
 204  1.7281891e+01 4.55e-02 5.71e-04  -5.7 4.77e-02    -  1.00e+00 1.00e+00h  1
 205  1.7281958e+01 9.23e-04 2.08e-03  -5.7 7.54e-02    -  1.00e+00 1.00e+00H  1
 206  1.7281971e+01 4.08e-05 1.13e-03  -5.7 1.02e-01    -  1.00e+00 1.00e+00H  1
 207  1.7281917e+01 5.89e-03 2.70e-03  -5.7 1.02e-01    -  1.00e+00 4.68e-01h  2
 208  1.7281903e+01 9.06e-03 1.65e-04  -5.7 6.12e-02    -  1.00e+00 1.00e+00h  1
 209  1.7281915e+01 9.32e-03 8.47e-04  -5.7 1.45e-02    -  1.00e+00 1.00e+00h  1
iter    objective    inf_pr   inf_du lg(mu)  ||d||  lg(rg) alpha_du alpha_pr  ls
 210  1.7281914e+01 5.09e-03 1.67e-04  -5.7 1.26e-02    -  1.00e+00 1.00e+00h  1
 211  1.7281918e+01 6.54e-04 7.50e-04  -5.7 1.15e-02    -  1.00e+00 1.00e+00H  1
 212  1.7281917e+01 3.49e-04 1.69e-04  -5.7 1.38e-02    -  1.00e+00 1.00e+00H  1
 213  1.7281920e+01 2.39e-04 8.93e-04  -5.7 1.41e-02    -  1.00e+00 1.00e+00H  1
 214  1.7281922e+01 1.57e-05 2.74e-04  -5.7 2.88e-02    -  1.00e+00 1.00e+00H  1
 215  1.7281918e+01 1.35e-04 1.01e-03  -5.7 4.30e-02    -  1.00e+00 2.50e-01h  3
 216  1.7281915e+01 2.73e-03 2.86e-04  -5.7 1.56e-02    -  1.00e+00 1.00e+00h  1
 217  1.7281917e+01 1.73e-04 1.05e-04  -5.7 6.03e-03    -  1.00e+00 1.00e+00H  1
 218  1.7281918e+01 9.52e-05 5.12e-04  -5.7 8.60e-03    -  1.00e+00 1.00e+00H  1
 219  1.7281921e+01 1.98e-05 2.15e-04  -5.7 2.29e-02    -  1.00e+00 1.00e+00H  1
iter    objective    inf_pr   inf_du lg(mu)  ||d||  lg(rg) alpha_du alpha_pr  ls
 220  1.7281918e+01 8.42e-05 5.99e-04  -5.7 3.14e-02    -  1.00e+00 2.50e-01h  3
 221  1.7281918e+01 2.09e-05 5.45e-04  -5.7 1.22e-02    -  1.00e+00 1.00e+00H  1
 222  1.7281921e+01 1.59e-05 2.19e-04  -5.7 2.39e-02    -  1.00e+00 1.00e+00H  1
 223  1.7281920e+01 1.14e-05 8.65e-04  -5.7 3.97e-02    -  1.00e+00 6.25e-02h  5
 224  1.7281919e+01 1.09e-05 7.96e-04  -5.7 3.37e-02    -  1.00e+00 6.25e-02h  5
 225  1.7281918e+01 5.21e-05 6.69e-04  -5.7 2.71e-02    -  1.00e+00 1.25e-01h  4
 226  1.7281918e+01 3.02e-06 5.81e-04  -5.7 1.37e-02    -  1.00e+00 1.00e+00H  1
 227  1.7281921e+01 1.23e-06 2.33e-04  -5.7 2.62e-02    -  1.00e+00 1.00e+00H  1
 228  1.7281921e+01 1.28e-06 1.00e-03  -5.7 4.27e-02    -  1.00e+00 3.12e-02h  6
 229  1.7281921e+01 1.35e-06 9.88e-04  -5.7 4.01e-02    -  1.00e+00 1.56e-02h  7
iter    objective    inf_pr   inf_du lg(mu)  ||d||  lg(rg) alpha_du alpha_pr  ls
 230  1.7281920e+01 1.37e-06 9.67e-04  -5.7 3.88e-02    -  1.00e+00 1.56e-02h  7
 231  1.7281920e+01 1.34e-06 9.46e-04  -5.7 3.74e-02    -  1.00e+00 1.56e-02h  7
 232  1.7281920e+01 1.40e-06 9.25e-04  -5.7 3.60e-02    -  1.00e+00 1.56e-02h  7
 233  1.7281911e+01 4.79e-02 1.63e-03  -5.7 3.45e-02    -  1.00e+00 1.00e+00h  1
 234  1.7281868e+01 1.09e-01 1.25e-03  -5.7 1.11e-01    -  1.00e+00 1.00e+00h  1
 235  1.7281828e+01 1.25e-01 3.67e-03  -5.7 1.56e-01    -  1.00e+00 1.00e+00h  1
 236  1.7281712e+01 1.59e-01 2.37e-03  -5.7 2.08e-01    -  8.39e-01 1.00e+00h  1
 237  1.7281642e+01 1.20e-01 3.27e-03  -5.7 2.87e-01    -  1.00e+00 4.62e-01h  1
 238  1.7281765e+01 9.70e-02 1.15e-03  -5.7 7.32e-02    -  1.00e+00 1.00e+00h  1
 239  1.7281796e+01 5.60e-02 1.68e-03  -5.7 1.41e-01    -  1.00e+00 5.00e-01h  2
iter    objective    inf_pr   inf_du lg(mu)  ||d||  lg(rg) alpha_du alpha_pr  ls
 240  1.7281895e+01 2.11e-02 2.07e-04  -5.7 1.06e-02    -  1.00e+00 1.00e+00h  1
 241  1.7281898e+01 1.64e-02 2.60e-04  -5.7 4.24e-02    -  1.00e+00 2.50e-01h  3
 242  1.7281916e+01 1.17e-04 4.04e-05  -5.7 6.36e-03    -  1.00e+00 1.00e+00h  1
 243  1.7281916e+01 1.73e-05 4.78e-06  -5.7 5.10e-04    -  1.00e+00 1.00e+00h  1
 244  1.7281759e+01 6.72e-05 3.21e-05  -7.0 3.12e-02    -  1.00e+00 1.00e+00h  1
 245  1.7281758e+01 5.49e-06 4.50e-06  -7.0 2.42e-02    -  1.00e+00 1.00e+00h  1
 246  1.7281758e+01 2.14e-07 1.54e-07  -7.0 6.39e-03    -  1.00e+00 1.00e+00h  1

Number of Iterations....: 246

                                   (scaled)                 (unscaled)
Objective...............:   1.7281758038741913e+01    1.7281758038741913e+01
Dual infeasibility......:   1.5424400290384545e-07    1.5424400290384545e-07
Constraint violation....:   2.1430760277496574e-07    2.1430760277496574e-07
Variable bound violation:   0.0000000000000000e+00    0.0000000000000000e+00
Complementarity.........:   1.0053635598713140e-07    1.0053635598713140e-07
Overall NLP error.......:   2.1430760277496574e-07    2.1430760277496574e-07


Number of objective function evaluations             = 483
Number of objective gradient evaluations             = 247
Number of equality constraint evaluations            = 483
Number of inequality constraint evaluations          = 483
Number of equality constraint Jacobian evaluations   = 247
Number of inequality constraint Jacobian evaluations = 247
Number of Lagrangian Hessian evaluations             = 246
Total seconds in IPOPT                               = 34.344

EXIT: Optimal Solution Found.
      solver  :   t_proc      (avg)   t_wall      (avg)    n_eval
       nlp_f  |  12.16ms ( 25.17us)  12.18ms ( 25.22us)       483
       nlp_g  |   1.98 s (  4.09ms)   1.99 s (  4.11ms)       483
  nlp_grad_f  |  10.31ms ( 41.57us)  10.34ms ( 41.67us)       248
  nlp_hess_l  |  21.19 s ( 86.15ms)  21.29 s ( 86.54ms)       246
   nlp_jac_g  |   6.39 s ( 25.76ms)   6.42 s ( 25.89ms)       248
       total  |  34.19 s ( 34.19 s)  34.34 s ( 34.34 s)         1
  Success: True
  Cost: 17.2818
  Iterations: 246
  Solve time: 48.04 s
  Max obstacle slack: 0.0000e+00
  Min obstacle clearance: 0.0000 m
  Accepted: True

Accepted attempt: baseline

Generating plots...
  Saved: /run/media/saveas/Secondary-Storage/Masters/CS234/CS234_Reinforcement_Learning/Final Project/CS234_Final_Project/results/trajectory_optimization/nlp/TRACK2_Obstacles/N120/ipopt_single_stage_trajectory.png
  Saved: /run/media/saveas/Secondary-Storage/Masters/CS234/CS234_Reinforcement_Learning/Final Project/CS234_Final_Project/results/trajectory_optimization/nlp/TRACK2_Obstacles/N120/ipopt_single_stage_states.png
  Saved: /run/media/saveas/Secondary-Storage/Masters/CS234/CS234_Reinforcement_Learning/Final Project/CS234_Final_Project/results/trajectory_optimization/nlp/TRACK2_Obstacles/N120/ipopt_single_stage_controls.png

Generating animation...
  Saved: /run/media/saveas/Secondary-Storage/Masters/CS234/CS234_Reinforcement_Learning/Final Project/CS234_Final_Project/results/trajectory_optimization/nlp/TRACK2_Obstacles/N120/ipopt_single_stage_animation.gif

======================================================================
SUMMARY
======================================================================
Selected attempt: baseline
Attempt                    N      Subs   Clear    Iters    Time [s]   Cost [s]   Max Sigma    Min Clear [m]  Accepted
-----------------------------------------------------------------------------------------------------------------------------
baseline                   120    11     0.300    246      48.04      17.2818    0.000e+00    0.0000         True

All outputs saved to: /run/media/saveas/Secondary-Storage/Masters/CS234/CS234_Reinforcement_Learning/Final Project/CS234_Final_Project/results/trajectory_optimization/nlp/TRACK2_Obstacles/N120
